c Generated map
c Size: 12 * 12, weights in range: 1 to 10, walls: False, with ratio 0.0
c dim 3 of 5
c
p sp 144 264
c graph contains 144 nodes and 264 arcs
c
a 1 13 10
a 13 1 10
a 1 2 8
a 2 1 8
a 2 14 5
a 14 2 5
a 2 3 6
a 3 2 6
a 3 15 2
a 15 3 2
a 3 4 5
a 4 3 5
a 4 16 10
a 16 4 10
a 4 5 1
a 5 4 1
a 5 17 10
a 17 5 10
a 5 6 8
a 6 5 8
a 6 18 7
a 18 6 7
a 6 7 8
a 7 6 8
a 7 19 9
a 19 7 9
a 7 8 8
a 8 7 8
a 8 20 10
a 20 8 10
a 8 9 8
a 9 8 8
a 9 21 3
a 21 9 3
a 9 10 6
a 10 9 6
a 10 22 6
a 22 10 6
a 10 11 8
a 11 10 8
a 11 23 1
a 23 11 1
a 11 12 2
a 12 11 2
a 12 24 3
a 24 12 3
a 13 25 10
a 25 13 10
a 13 14 8
a 14 13 8
a 14 26 10
a 26 14 10
a 14 15 6
a 15 14 6
a 15 27 4
a 27 15 4
a 15 16 5
a 16 15 5
a 16 28 5
a 28 16 5
a 16 17 9
a 17 16 9
a 17 29 6
a 29 17 6
a 17 18 7
a 18 17 7
a 18 30 4
a 30 18 4
a 18 19 6
a 19 18 6
a 19 31 9
a 31 19 9
a 19 20 7
a 20 19 7
a 20 32 2
a 32 20 2
a 20 21 9
a 21 20 9
a 21 33 10
a 33 21 10
a 21 22 4
a 22 21 4
a 22 34 1
a 34 22 1
a 22 23 3
a 23 22 3
a 23 35 4
a 35 23 4
a 23 24 10
a 24 23 10
a 24 36 10
a 36 24 10
a 25 37 1
a 37 25 1
a 25 26 1
a 26 25 1
a 26 38 4
a 38 26 4
a 26 27 2
a 27 26 2
a 27 39 6
a 39 27 6
a 27 28 8
a 28 27 8
a 28 40 4
a 40 28 4
a 28 29 9
a 29 28 9
a 29 41 5
a 41 29 5
a 29 30 2
a 30 29 2
a 30 42 8
a 42 30 8
a 30 31 1
a 31 30 1
a 31 43 1
a 43 31 1
a 31 32 1
a 32 31 1
a 32 44 2
a 44 32 2
a 32 33 5
a 33 32 5
a 33 45 3
a 45 33 3
a 33 34 1
a 34 33 1
a 34 46 2
a 46 34 2
a 34 35 2
a 35 34 2
a 35 47 7
a 47 35 7
a 35 36 3
a 36 35 3
a 36 48 9
a 48 36 9
a 37 49 7
a 49 37 7
a 37 38 7
a 38 37 7
a 38 50 6
a 50 38 6
a 38 39 2
a 39 38 2
a 39 51 2
a 51 39 2
a 39 40 9
a 40 39 9
a 40 52 9
a 52 40 9
a 40 41 8
a 41 40 8
a 41 53 10
a 53 41 10
a 41 42 3
a 42 41 3
a 42 54 10
a 54 42 10
a 42 43 2
a 43 42 2
a 43 55 4
a 55 43 4
a 43 44 3
a 44 43 3
a 44 56 10
a 56 44 10
a 44 45 4
a 45 44 4
a 45 57 3
a 57 45 3
a 45 46 3
a 46 45 3
a 46 58 5
a 58 46 5
a 46 47 5
a 47 46 5
a 47 59 7
a 59 47 7
a 47 48 7
a 48 47 7
a 48 60 7
a 60 48 7
a 49 61 10
a 61 49 10
a 49 50 4
a 50 49 4
a 50 62 10
a 62 50 10
a 50 51 7
a 51 50 7
a 51 63 5
a 63 51 5
a 51 52 10
a 52 51 10
a 52 64 2
a 64 52 2
a 52 53 4
a 53 52 4
a 53 65 1
a 65 53 1
a 53 54 8
a 54 53 8
a 54 66 10
a 66 54 10
a 54 55 6
a 55 54 6
a 55 67 2
a 67 55 2
a 55 56 4
a 56 55 4
a 56 68 2
a 68 56 2
a 56 57 1
a 57 56 1
a 57 69 7
a 69 57 7
a 57 58 4
a 58 57 4
a 58 70 6
a 70 58 6
a 58 59 1
a 59 58 1
a 59 71 1
a 71 59 1
a 59 60 4
a 60 59 4
a 60 72 4
a 72 60 4
a 61 73 5
a 73 61 5
a 61 62 10
a 62 61 10
a 62 74 7
a 74 62 7
a 62 63 5
a 63 62 5
a 63 75 3
a 75 63 3
a 63 64 7
a 64 63 7
a 64 76 7
a 76 64 7
a 64 65 5
a 65 64 5
a 65 77 2
a 77 65 2
a 65 66 3
a 66 65 3
a 66 78 2
a 78 66 2
a 66 67 10
a 67 66 10
a 67 79 6
a 79 67 6
a 67 68 10
a 68 67 10
a 68 80 5
a 80 68 5
a 68 69 6
a 69 68 6
a 69 81 2
a 81 69 2
a 69 70 10
a 70 69 10
a 70 82 6
a 82 70 6
a 70 71 1
a 71 70 1
a 71 83 8
a 83 71 8
a 71 72 1
a 72 71 1
a 72 84 3
a 84 72 3
a 73 85 4
a 85 73 4
a 73 74 2
a 74 73 2
a 74 86 8
a 86 74 8
a 74 75 2
a 75 74 2
a 75 87 7
a 87 75 7
a 75 76 10
a 76 75 10
a 76 88 5
a 88 76 5
a 76 77 8
a 77 76 8
a 77 89 6
a 89 77 6
a 77 78 5
a 78 77 5
a 78 90 7
a 90 78 7
a 78 79 1
a 79 78 1
a 79 91 6
a 91 79 6
a 79 80 5
a 80 79 5
a 80 92 7
a 92 80 7
a 80 81 3
a 81 80 3
a 81 93 7
a 93 81 7
a 81 82 4
a 82 81 4
a 82 94 4
a 94 82 4
a 82 83 3
a 83 82 3
a 83 95 2
a 95 83 2
a 83 84 3
a 84 83 3
a 84 96 6
a 96 84 6
a 85 97 7
a 97 85 7
a 85 86 6
a 86 85 6
a 86 98 7
a 98 86 7
a 86 87 5
a 87 86 5
a 87 99 2
a 99 87 2
a 87 88 1
a 88 87 1
a 88 100 8
a 100 88 8
a 88 89 2
a 89 88 2
a 89 101 8
a 101 89 8
a 89 90 7
a 90 89 7
a 90 102 4
a 102 90 4
a 90 91 10
a 91 90 10
a 91 103 5
a 103 91 5
a 91 92 7
a 92 91 7
a 92 104 8
a 104 92 8
a 92 93 5
a 93 92 5
a 93 105 6
a 105 93 6
a 93 94 5
a 94 93 5
a 94 106 4
a 106 94 4
a 94 95 6
a 95 94 6
a 95 107 8
a 107 95 8
a 95 96 9
a 96 95 9
a 96 108 6
a 108 96 6
a 97 109 3
a 109 97 3
a 97 98 1
a 98 97 1
a 98 110 7
a 110 98 7
a 98 99 1
a 99 98 1
a 99 111 5
a 111 99 5
a 99 100 1
a 100 99 1
a 100 112 1
a 112 100 1
a 100 101 3
a 101 100 3
a 101 113 9
a 113 101 9
a 101 102 6
a 102 101 6
a 102 114 2
a 114 102 2
a 102 103 6
a 103 102 6
a 103 115 4
a 115 103 4
a 103 104 1
a 104 103 1
a 104 116 2
a 116 104 2
a 104 105 10
a 105 104 10
a 105 117 7
a 117 105 7
a 105 106 8
a 106 105 8
a 106 118 10
a 118 106 10
a 106 107 5
a 107 106 5
a 107 119 1
a 119 107 1
a 107 108 9
a 108 107 9
a 108 120 8
a 120 108 8
a 109 121 3
a 121 109 3
a 109 110 3
a 110 109 3
a 110 122 6
a 122 110 6
a 110 111 4
a 111 110 4
a 111 123 2
a 123 111 2
a 111 112 4
a 112 111 4
a 112 124 7
a 124 112 7
a 112 113 6
a 113 112 6
a 113 125 3
a 125 113 3
a 113 114 5
a 114 113 5
a 114 126 6
a 126 114 6
a 114 115 7
a 115 114 7
a 115 127 2
a 127 115 2
a 115 116 3
a 116 115 3
a 116 128 5
a 128 116 5
a 116 117 3
a 117 116 3
a 117 129 6
a 129 117 6
a 117 118 8
a 118 117 8
a 118 130 4
a 130 118 4
a 118 119 7
a 119 118 7
a 119 131 9
a 131 119 9
a 119 120 5
a 120 119 5
a 120 132 6
a 132 120 6
a 121 133 7
a 133 121 7
a 121 122 10
a 122 121 10
a 122 134 4
a 134 122 4
a 122 123 6
a 123 122 6
a 123 135 9
a 135 123 9
a 123 124 9
a 124 123 9
a 124 136 8
a 136 124 8
a 124 125 1
a 125 124 1
a 125 137 10
a 137 125 10
a 125 126 10
a 126 125 10
a 126 138 8
a 138 126 8
a 126 127 1
a 127 126 1
a 127 139 10
a 139 127 10
a 127 128 6
a 128 127 6
a 128 140 7
a 140 128 7
a 128 129 4
a 129 128 4
a 129 141 2
a 141 129 2
a 129 130 1
a 130 129 1
a 130 142 10
a 142 130 10
a 130 131 8
a 131 130 8
a 131 143 8
a 143 131 8
a 131 132 1
a 132 131 1
a 132 144 4
a 144 132 4
a 133 134 7
a 134 133 7
a 134 135 10
a 135 134 10
a 135 136 6
a 136 135 6
a 136 137 8
a 137 136 8
a 137 138 9
a 138 137 9
a 138 139 3
a 139 138 3
a 139 140 4
a 140 139 4
a 140 141 7
a 141 140 7
a 141 142 7
a 142 141 7
a 142 143 10
a 143 142 10
a 143 144 1
a 144 143 1
